
Gurobi 10.0.1 (mac64[arm]) logging started Mon Sep 18 22:47:09 2023

Set parameter LogFile to value "scenario_capacity/CAP_h/results/CAP_h_25/mip_log.txt"
Gurobi Optimizer version 10.0.1 build v10.0.1rc0 (mac64[arm])

CPU model: Apple M1
Thread count: 8 physical cores, 8 logical processors, using up to 8 threads

Optimize a model with 6776 rows, 25172 columns and 99088 nonzeros
Model fingerprint: 0xa3cbbfd0
Model has 35912 general constraints
Variable types: 4 continuous, 25168 integer (1632 binary)
Coefficient statistics:
  Matrix range     [6e-02, 3e+05]
  Objective range  [9e-02, 2e+05]
  Bounds range     [1e+00, 2e+07]
  RHS range        [4e+03, 2e+04]
  GenCon rhs range [1e+00, 1e+00]
  GenCon coe range [1e+00, 1e+00]

MIP start from previous solve produced solution with objective 5.72614e+07 (1.19s)
MIP start from previous solve produced solution with objective 5.592e+07 (1.52s)
MIP start from previous solve produced solution with objective 5.56808e+07 (1.58s)
MIP start from previous solve produced solution with objective 5.56808e+07 (1.69s)
MIP start from previous solve produced solution with objective 5.56808e+07 (1.72s)
MIP start from previous solve produced solution with objective 5.54005e+07 (1.76s)
Loaded MIP start from previous solve with objective 5.54005e+07
Processed MIP start in 1.95 seconds (2.35 work units)

Presolve removed 5126 rows and 19252 columns
Presolve time: 0.56s
Presolved: 1650 rows, 5920 columns, 23713 nonzeros
Presolved model has 4 SOS constraint(s)
Variable types: 0 continuous, 5920 integer (34 binary)

Root relaxation: objective 5.151037e+07, 7114 iterations, 0.10 seconds (0.13 work units)

    Nodes    |    Current Node    |     Objective Bounds      |     Work
 Expl Unexpl |  Obj  Depth IntInf | Incumbent    BestBd   Gap | It/Node Time

     0     0 5.1510e+07    0  328 5.5401e+07 5.1510e+07  7.02%     -    2s
     0     0 5.1650e+07    0  856 5.5401e+07 5.1650e+07  6.77%     -    2s
     0     0 5.1650e+07    0  902 5.5401e+07 5.1650e+07  6.77%     -    2s
     0     0 5.1650e+07    0  783 5.5401e+07 5.1650e+07  6.77%     -    2s
     0     0 5.1654e+07    0  790 5.5401e+07 5.1654e+07  6.76%     -    2s
     0     0 5.1654e+07    0  792 5.5401e+07 5.1654e+07  6.76%     -    2s
     0     0 5.1654e+07    0  794 5.5401e+07 5.1654e+07  6.76%     -    2s
     0     0 5.1670e+07    0  790 5.5401e+07 5.1670e+07  6.73%     -    2s
     0     0 5.1714e+07    0  948 5.5401e+07 5.1714e+07  6.65%     -    2s
     0     0 5.1715e+07    0  958 5.5401e+07 5.1715e+07  6.65%     -    2s
     0     0 5.1724e+07    0  964 5.5401e+07 5.1724e+07  6.64%     -    2s
     0     0 5.1724e+07    0  970 5.5401e+07 5.1724e+07  6.64%     -    2s
     0     0 5.1804e+07    0 1017 5.5401e+07 5.1804e+07  6.49%     -    2s
     0     0 5.1945e+07    0  984 5.5401e+07 5.1945e+07  6.24%     -    3s
     0     2 5.1945e+07    0  977 5.5401e+07 5.1945e+07  6.24%     -    3s
H   33    40                    5.540050e+07 5.2847e+07  4.61%   534    3s
H   38    40                    5.540050e+07 5.2863e+07  4.58%   507    3s
H   72    67                    5.526026e+07 5.2865e+07  4.33%   398    4s
H  186   138                    5.519449e+07 5.2865e+07  4.22%   293    4s
H  190   138                    5.519304e+07 5.2865e+07  4.22%   296    4s
   723   421 5.4436e+07   14  635 5.5193e+07 5.3331e+07  3.37%   180    5s
H  887   496                    5.518369e+07 5.3460e+07  3.12%   159    5s
H  889   446                    5.515070e+07 5.3460e+07  3.06%   158    5s
H 1503   714                    5.515064e+07 5.3510e+07  2.97%   119    5s
H 1542   702                    5.511231e+07 5.3510e+07  2.91%   126    6s
H 1599   702                    5.511147e+07 5.3510e+07  2.91%   127    7s
H 1600   670                    5.502647e+07 5.3510e+07  2.76%   127    7s
H 1695   659                    5.501952e+07 5.3510e+07  2.74%   126    7s
H 1696   630                    5.501349e+07 5.3510e+07  2.73%   126    7s
H 1697   602                    5.500503e+07 5.3510e+07  2.72%   126    7s
H 3044   608                    5.498594e+07 5.3510e+07  2.68%  94.7    8s
H 3133   613                    5.498572e+07 5.3510e+07  2.68%  93.2    8s
H 4078   853                    5.497289e+07 5.3510e+07  2.66%  83.3    8s
H 5446   921                    5.497288e+07 5.3596e+07  2.51%  83.4    9s
  5660   980     cutoff   26      5.4973e+07 5.3620e+07  2.46%  84.0   10s
H 6295   927                    5.497283e+07 5.3685e+07  2.34%  83.5   10s
H 7996   865                    5.487374e+07 5.4050e+07  1.50%  82.1   11s
H 8060   833                    5.484607e+07 5.4050e+07  1.45%  81.9   11s
 11392   633 5.4739e+07   25   19 5.4846e+07 5.4502e+07  0.63%  82.2   15s
H12955   875                    5.484606e+07 5.4605e+07  0.44%  81.0   16s
H13471   410                    5.484606e+07 5.4605e+07  0.44%  78.7   17s
H13487   410                    5.484606e+07 5.4605e+07  0.44%  78.6   17s
H15117  1285                    5.484606e+07 5.4784e+07  0.11%  74.3   17s

Explored 16067 nodes (1137101 simplex iterations) in 17.75 seconds (25.65 work units)
Thread count was 8 (of 8 available processors)

Solution count 10: 5.48461e+07 5.48461e+07 5.48461e+07 ... 5.49857e+07

Optimal solution found (tolerance 1.00e-04)
Best objective 5.484606101200e+07, best bound 5.484606091463e+07, gap 0.0000%
